50
0 1 0.38 0.29
0 2 0.54 0.37
0 3 0.67 0.23
0 4 0.64 0.24
0 5 0.45 0.24
0 6 0.54 0.32
0 7 0.67 0.24
0 8 0.75 0.18
0 9 0.71 0.26
0 10 0.5 0.3
0 11 0.6 0.3
0 12 0.57 0.24
0 13 0.46 0.24
0 14 0.69 0.16
0 15 0.64 0.26
0 16 0.42 0.27
0 17 0.52 0.21
0 18 0.36 0.21
0 19 0.75 0.24
0 20 0.64 0.26
0 21 0.52 0.26
0 22 0.32 0.21
0 23 0.53 0.09
0 24 0.66 0.08
0 25 0.52 0.27
0 26 0.53 0.34
0 27 0.32 0.16
0 28 0.64 0.25
0 29 0.36 0.23
0 30 0.4 0.28
0 31 0.67 0.22
0 32 0.58 0.33
0 33 0.66 0.24
0 34 0.69 0.17
0 35 0.5 0.25
0 36 0.56 0.26
0 37 0.66 0.25
0 38 0.68 0.22
0 39 0.49 0.31
0 40 0.45 0.12
0 41 0.57 0.18
0 42 0.44 0.26
0 43 0.74 0.28
0 44 0.6 0.24
0 45 0.46 0.24
0 46 0.64 0.3
0 47 0.56 0.26
0 48 0.62 0.28
0 49 0.46 0.22
1 2 0.72 0.18
1 3 0.55 0.21
1 4 0.42 0.21
1 5 0.58 0.12
1 6 0.66 0.34
1 7 0.46 0.22
1 8 0.58 0.28
1 9 0.68 0.2
1 10 0.48 0.18
1 11 0.73 0.18
1 12 0.41 0.16
1 13 0.6 0.18
1 14 0.46 0.14
1 15 0.47 0.2
1 16 0.38 0.22
1 17 0.4 0.26
1 18 0.5 0.23
1 19 0.7 0.23
1 20 0.6 0.26
1 21 0.48 0.14
1 22 0.34 0.18
1 23 0.54 0.21
1 24 0.46 0.28
1 25 0.54 0.24
1 26 0.46 0.3
1 27 0.7 0.13
1 28 0.3 0.14
1 29 0.51 0.24
1 30 0.1 0.02
1 31 0.58 0.26
1 32 0.66 0.13
1 33 0.59 0.24
1 34 0.6 0.19
1 35 0.62 0.24
1 36 0.42 0.23
1 37 0.3 0.19
1 38 0.44 0.14
1 39 0.58 0.23
1 40 0.62 0.22
1 41 0.7 0.22
1 42 0.54 0.28
1 43 0.54 0.2
1 44 0.22 0.12
1 45 0.52 0.25
1 46 0.52 0.16
1 47 0.56 0.2
1 48 0.44 0.2
1 49 0.39 0.14
2 3 0.66 0.29
2 4 0.6 0.15
2 5 0.55 0.3
2 6 0.7 0.32
2 7 0.8 0.36
2 8 0.54 0.28
2 9 0.74 0.25
2 10 0.66 0.3
2 11 0.4 0.3
2 12 0.38 0.24
2 13 0.52 0.2
2 14 0.6 0.23
2 15 0.6 0.22
2 16 0.62 0.32
2 17 0.78 0.23
2 18 0.32 0.28
2 19 0.51 0.26
2 20 0.64 0.28
2 21 0.43 0.26
2 22 0.76 0.32
2 23 0.79 0.3
2 24 0.58 0.36
2 25 0.48 0.26
2 26 0.44 0.28
2 27 0.4 0.21
2 28 0.68 0.32
2 29 0.57 0.3
2 30 0.62 0.16
2 31 0.6 0.23
2 32 0.79 0.31
2 33 0.46 0.21
2 34 0.64 0.27
2 35 0.76 0.32
2 36 0.67 0.26
2 37 0.64 0.32
2 38 0.47 0.32
2 39 0.72 0.34
2 40 0.66 0.31
2 41 0.54 0.3
2 42 0.54 0.3
2 43 0.58 0.25
2 44 0.69 0.3
2 45 0.38 0.28
2 46 0.56 0.18
2 47 0.58 0.25
2 48 0.86 0.28
2 49 0.61 0.29
3 4 0.59 0.15
3 5 0.42 0.16
3 6 0.32 0.2
3 7 0.34 0.16
3 8 0.5 0.18
3 9 0.68 0.09
3 10 0.58 0.1
3 11 0.3 0.22
3 12 0.51 0.25
3 13 0.52 0.16
3 14 0.35 0.07
3 15 0.47 0.24
3 16 0.62 0.04
3 17 0.59 0.22
3 18 0.44 0.08
3 19 0.54 0.09
3 20 0.7 0.22
3 21 0.54 0.14
3 22 0.46 0.22
3 23 0.72 0.14
3 24 0.83 0.24
3 25 0.6 0.2
3 26 0.42 0.21
3 27 0.54 0.15
3 28 0.38 0.18
3 29 0.51 0.2
3 30 0.45 0.19
3 31 0.48 0.17
3 32 0.41 0.25
3 33 0.64 0.15
3 34 0.72 0.21
3 35 0.5 0.04
3 36 0.7 0.15
3 37 0.52 0.12
3 38 0.65 0.14
3 39 0.54 0.25
3 40 0.62 0.15
3 41 0.68 0.19
3 42 0.63 0.21
3 43 0.68 0.19
3 44 0.68 0.14
3 45 0.49 0.17
3 46 0.6 0.2
3 47 0.54 0.09
3 48 0.72 0.21
3 49 0.58 0.13
4 5 0.69 0.23
4 6 0.58 0.17
4 7 0.5 0.27
4 8 0.49 0.24
4 9 0.28 0.1
4 10 0.78 0.17
4 11 0.59 0.29
4 12 0.27 0.2
4 13 0.48 0.18
4 14 0.24 0.08
4 15 0.64 0.25
4 16 0.58 0.19
4 17 0.48 0.08
4 18 0.28 0.22
4 19 0.5 0.18
4 20 0.53 0.13
4 21 0.68 0.21
4 22 0.44 0.2
4 23 0.27 0.15
4 24 0.4 0.25
4 25 0.44 0.22
4 26 0.34 0.13
4 27 0.69 0.28
4 28 0.64 0.23
4 29 0.7 0.26
4 30 0.52 0.2
4 31 0.45 0.08
4 32 0.42 0.22
4 33 0.17 0.06
4 34 0.66 0.29
4 35 0.42 0.19
4 36 0.58 0.12
4 37 0.36 0.24
4 38 0.68 0.25
4 39 0.59 0.27
4 40 0.66 0.16
4 41 0.54 0.2
4 42 0.54 0.21
4 43 0.64 0.1
4 44 0.59 0.16
4 45 0.52 0.24
4 46 0.59 0.21
4 47 0.64 0.1
4 48 0.46 0.18
4 49 0.47 0.14
5 6 0.68 0.22
5 7 0.65 0.24
5 8 0.64 0.24
5 9 0.78 0.2
5 10 0.66 0.26
5 11 0.15 0.06
5 12 0.61 0.19
5 13 0.32 0.24
5 14 0.58 0.16
5 15 0.54 0.31
5 16 0.38 0.2
5 17 0.8 0.22
5 18 0.52 0.16
5 19 0.5 0.11
5 20 0.55 0.14
5 21 0.52 0.23
5 22 0.67 0.06
5 23 0.52 0.15
5 24 0.46 0.27
5 25 0.55 0.12
5 26 0.63 0.18
5 27 0.48 0.23
5 28 0.59 0.02
5 29 0.44 0.25
5 30 0.56 0.14
5 31 0.52 0.18
5 32 0.75 0.1
5 33 0.52 0.17
5 34 0.5 0.26
5 35 0.63 0.12
5 36 0.38 0.22
5 37 0.69 0.13
5 38 0.23 0.02
5 39 0.69 0.23
5 40 0.5 0.24
5 41 0.38 0.22
5 42 0.48 0.2
5 43 0.55 0.2
5 44 0.5 0.12
5 45 0.67 0.25
5 46 0.59 0.28
5 47 0.46 0.2
5 48 0.73 0.23
5 49 0.45 0.1
6 7 0.66 0.33
6 8 0.71 0.28
6 9 0.47 0.15
6 10 0.44 0.3
6 11 0.59 0.28
6 12 0.5 0.37
6 13 0.71 0.33
6 14 0.67 0.25
6 15 0.71 0.3
6 16 0.49 0.18
6 17 0.49 0.25
6 18 0.52 0.25
6 19 0.65 0.19
6 20 0.52 0.18
6 21 0.75 0.31
6 22 0.54 0.24
6 23 0.72 0.32
6 24 0.59 0.33
6 25 0.68 0.29
6 26 0.74 0.04
6 27 0.6 0.29
6 28 0.7 0.2
6 29 0.64 0.31
6 30 0.68 0.33
6 31 0.41 0.23
6 32 0.66 0.28
6 33 0.58 0.21
6 34 0.43 0.28
6 35 0.7 0.21
6 36 0.38 0.27
6 37 0.78 0.29
6 38 0.75 0.24
6 39 0.62 0.38
6 40 0.42 0.26
6 41 0.54 0.2
6 42 0.41 0.26
6 43 0.66 0.25
6 44 0.74 0.27
6 45 0.67 0.3
6 46 0.78 0.26
6 47 0.59 0.15
6 48 0.74 0.33
6 49 0.71 0.25
7 8 0.82 0.28
7 9 0.69 0.25
7 10 0.73 0.19
7 11 0.64 0.26
7 12 0.42 0.18
7 13 0.67 0.24
7 14 0.65 0.22
7 15 0.55 0.2
7 16 0.72 0.2
7 17 0.58 0.19
7 18 0.78 0.16
7 19 0.73 0.23
7 20 0.5 0.18
7 21 0.71 0.23
7 22 0.44 0.3
7 23 0.77 0.15
7 24 0.54 0.32
7 25 0.65 0.28
7 26 0.56 0.29
7 27 0.47 0.24
7 28 0.72 0.26
7 29 0.69 0.28
7 30 0.36 0.2
7 31 0.64 0.27
7 32 0.75 0.34
7 33 0.6 0.25
7 34 0.39 0.27
7 35 0.26 0.12
7 36 0.58 0.24
7 37 0.39 0.2
7 38 0.42 0.22
7 39 0.76 0.16
7 40 0.63 0.3
7 41 0.75 0.26
7 42 0.55 0.26
7 43 0.42 0.21
7 44 0.66 0.27
7 45 0.54 0.12
7 46 0.74 0.24
7 47 0.57 0.25
7 48 0.41 0.22
7 49 0.84 0.28
8 9 0.77 0.21
8 10 0.58 0.25
8 11 0.73 0.18
8 12 0.76 0.29
8 13 0.62 0.26
8 14 0.61 0.25
8 15 0.7 0.08
8 16 0.74 0.22
8 17 0.75 0.32
8 18 0.72 0.26
8 19 0.46 0.23
8 20 0.63 0.27
8 21 0.68 0.26
8 22 0.82 0.29
8 23 0.76 0.27
8 24 0.54 0.1
8 25 0.8 0.35
8 26 0.68 0.24
8 27 0.64 0.25
8 28 0.7 0.25
8 29 0.46 0.26
8 30 0.48 0.26
8 31 0.74 0.24
8 32 0.8 0.33
8 33 0.6 0.24
8 34 0.54 0.19
8 35 0.6 0.22
8 36 0.63 0.2
8 37 0.66 0.3
8 38 0.7 0.26
8 39 0.66 0.2
8 40 0.3 0.17
8 41 0.42 0.23
8 42 0.7 0.33
8 43 0.4 0.2
8 44 0.8 0.31
8 45 0.54 0.22
8 46 0.66 0.12
8 47 0.64 0.21
8 48 0.82 0.26
8 49 0.44 0.29
9 10 0.72 0.17
9 11 0.72 0.26
9 12 0.51 0.22
9 13 0.55 0.18
9 14 0.52 0.16
9 15 0.43 0.15
9 16 0.44 0.13
9 17 0.62 0.18
9 18 0.48 0.17
9 19 0.59 0.18
9 20 0.7 0.13
9 21 0.82 0.21
9 22 0.39 0.22
9 23 0.55 0.2
9 24 0.68 0.18
9 25 0.32 0.22
9 26 0.4 0.19
9 27 0.46 0.22
9 28 0.42 0.19
9 29 0.54 0.16
9 30 0.58 0.18
9 31 0.72 0.08
9 32 0.5 0.16
9 33 0.45 0.06
9 34 0.56 0.19
9 35 0.45 0.13
9 36 0.62 0.12
9 37 0.64 0.21
9 38 0.58 0.22
9 39 0.78 0.23
9 40 0.6 0.18
9 41 0.5 0.21
9 42 0.7 0.12
9 43 0.72 0.1
9 44 0.64 0.12
9 45 0.72 0.24
9 46 0.72 0.11
9 47 0.45 0.0
9 48 0.52 0.18
9 49 0.73 0.1
10 11 0.56 0.28
10 12 0.73 0.15
10 13 0.5 0.11
10 14 0.68 0.17
10 15 0.51 0.22
10 16 0.28 0.14
10 17 0.44 0.21
10 18 0.7 0.18
10 19 0.62 0.16
10 20 0.74 0.18
10 21 0.56 0.04
10 22 0.6 0.27
10 23 0.62 0.24
10 24 0.48 0.22
10 25 0.66 0.23
10 26 0.59 0.3
10 27 0.26 0.19
10 28 0.61 0.25
10 29 0.48 0.14
10 30 0.58 0.16
10 31 0.74 0.09
10 32 0.62 0.17
10 33 0.62 0.11
10 34 0.4 0.13
10 35 0.54 0.14
10 36 0.5 0.05
10 37 0.56 0.22
10 38 0.72 0.24
10 39 0.46 0.28
10 40 0.42 0.19
10 41 0.54 0.25
10 42 0.74 0.26
10 43 0.54 0.15
10 44 0.68 0.24
10 45 0.54 0.07
10 46 0.49 0.18
10 47 0.65 0.17
10 48 0.63 0.11
10 49 0.52 0.23
11 12 0.46 0.13
11 13 0.47 0.23
11 14 0.65 0.22
11 15 0.49 0.26
11 16 0.53 0.26
11 17 0.7 0.28
11 18 0.56 0.22
11 19 0.6 0.17
11 20 0.4 0.19
11 21 0.46 0.28
11 22 0.54 0.12
11 23 0.52 0.21
11 24 0.56 0.28
11 25 0.4 0.18
11 26 0.7 0.24
11 27 0.5 0.29
11 28 0.44 0.08
11 29 0.59 0.3
11 30 0.7 0.16
11 31 0.42 0.24
11 32 0.6 0.16
11 33 0.42 0.23
11 34 0.65 0.26
11 35 0.48 0.18
11 36 0.53 0.23
11 37 0.54 0.19
11 38 0.38 0.08
11 39 0.54 0.29
11 40 0.64 0.25
11 41 0.53 0.27
11 42 0.62 0.26
11 43 0.62 0.26
11 44 0.65 0.18
11 45 0.64 0.31
11 46 0.44 0.3
11 47 0.5 0.26
11 48 0.77 0.17
11 49 0.6 0.16
12 13 0.41 0.15
12 14 0.49 0.2
12 15 0.44 0.26
12 16 0.77 0.25
12 17 0.73 0.22
12 18 0.55 0.2
12 19 0.77 0.26
12 20 0.66 0.23
12 21 0.41 0.19
12 22 0.38 0.22
12 23 0.54 0.27
12 24 0.67 0.32
12 25 0.55 0.28
12 26 0.46 0.33
12 27 0.68 0.29
12 28 0.5 0.21
12 29 0.61 0.17
12 30 0.51 0.18
12 31 0.72 0.14
12 32 0.69 0.29
12 33 0.42 0.16
12 34 0.73 0.28
12 35 0.52 0.24
12 36 0.39 0.1
12 37 0.38 0.16
12 38 0.67 0.21
12 39 0.69 0.31
12 40 0.67 0.12
12 41 0.55 0.18
12 42 0.66 0.31
12 43 0.74 0.2
12 44 0.62 0.28
12 45 0.44 0.22
12 46 0.72 0.3
12 47 0.52 0.22
12 48 0.68 0.04
12 49 0.65 0.26
13 14 0.72 0.2
13 15 0.45 0.25
13 16 0.7 0.2
13 17 0.66 0.22
13 18 0.2 0.08
13 19 0.78 0.19
13 20 0.74 0.19
13 21 0.6 0.07
13 22 0.68 0.26
13 23 0.62 0.27
13 24 0.78 0.25
13 25 0.36 0.2
13 26 0.49 0.29
13 27 0.76 0.22
13 28 0.6 0.23
13 29 0.32 0.1
13 30 0.5 0.19
13 31 0.51 0.1
13 32 0.68 0.2
13 33 0.65 0.12
13 34 0.62 0.16
13 35 0.8 0.12
13 36 0.48 0.06
13 37 0.66 0.12
13 38 0.55 0.22
13 39 0.81 0.24
13 40 0.6 0.12
13 41 0.64 0.18
13 42 0.76 0.27
13 43 0.61 0.16
13 44 0.69 0.25
13 45 0.7 0.18
13 46 0.58 0.21
13 47 0.62 0.18
13 48 0.46 0.12
13 49 0.58 0.23
14 15 0.53 0.27
14 16 0.55 0.11
14 17 0.24 0.16
14 18 0.52 0.15
14 19 0.74 0.16
14 20 0.56 0.2
14 21 0.5 0.16
14 22 0.64 0.19
14 23 0.51 0.07
14 24 0.48 0.17
14 25 0.54 0.25
14 26 0.52 0.21
14 27 0.66 0.22
14 28 0.58 0.15
14 29 0.69 0.26
14 30 0.36 0.12
14 31 0.66 0.16
14 32 0.56 0.23
14 33 0.41 0.14
14 34 0.71 0.22
14 35 0.62 0.11
14 36 0.41 0.2
14 37 0.26 0.19
14 38 0.76 0.18
14 39 0.68 0.19
14 40 0.62 0.08
14 41 0.53 0.12
14 42 0.78 0.28
14 43 0.68 0.18
14 44 0.68 0.08
14 45 0.28 0.17
14 46 0.41 0.25
14 47 0.64 0.16
14 48 0.7 0.24
14 49 0.23 0.06
15 16 0.61 0.28
15 17 0.63 0.29
15 18 0.51 0.3
15 19 0.62 0.3
15 20 0.56 0.25
15 21 0.62 0.18
15 22 0.72 0.34
15 23 0.57 0.34
15 24 0.78 0.18
15 25 0.63 0.36
15 26 0.72 0.32
15 27 0.62 0.3
15 28 0.6 0.3
15 29 0.66 0.18
15 30 0.57 0.18
15 31 0.6 0.22
15 32 0.54 0.31
15 33 0.6 0.21
15 34 0.46 0.27
15 35 0.52 0.28
15 36 0.48 0.26
15 37 0.49 0.34
15 38 0.77 0.33
15 39 0.6 0.12
15 40 0.4 0.23
15 41 0.28 0.17
15 42 0.71 0.26
15 43 0.3 0.19
15 44 0.6 0.23
15 45 0.62 0.29
15 46 0.52 0.04
15 47 0.44 0.15
15 48 0.63 0.3
15 49 0.3 0.21
16 17 0.42 0.26
16 18 0.64 0.12
16 19 0.77 0.13
16 20 0.46 0.21
16 21 0.44 0.18
16 22 0.72 0.26
16 23 0.62 0.18
16 24 0.76 0.26
16 25 0.48 0.24
16 26 0.31 0.22
16 27 0.54 0.11
16 28 0.46 0.22
16 29 0.74 0.24
16 30 0.46 0.23
16 31 0.46 0.16
16 32 0.7 0.29
16 33 0.58 0.14
16 34 0.63 0.17
16 35 0.54 0.08
16 36 0.61 0.15
16 37 0.54 0.16
16 38 0.61 0.18
16 39 0.74 0.22
16 40 0.61 0.18
16 41 0.49 0.23
16 42 0.68 0.25
16 43 0.58 0.18
16 44 0.6 0.18
16 45 0.58 0.21
16 46 0.71 0.24
16 47 0.74 0.13
16 48 0.35 0.21
16 49 0.49 0.17
17 18 0.46 0.3
17 19 0.84 0.26
17 20 0.54 0.12
17 21 0.74 0.25
17 22 0.4 0.28
17 23 0.64 0.12
17 24 0.72 0.29
17 25 0.3 0.23
17 26 0.72 0.21
17 27 0.58 0.35
17 28 0.59 0.24
17 29 0.7 0.25
17 30 0.46 0.24
17 31 0.42 0.16
17 32 0.56 0.24
17 33 0.46 0.14
17 34 0.52 0.34
17 35 0.8 0.26
17 36 0.56 0.16
17 37 0.5 0.3
17 38 0.79 0.24
17 39 0.64 0.26
17 40 0.6 0.24
17 41 0.48 0.2
17 42 0.74 0.15
17 43 0.44 0.18
17 44 0.48 0.24
17 45 0.52 0.28
17 46 0.52 0.29
17 47 0.4 0.18
17 48 0.52 0.18
17 49 0.47 0.22
18 19 0.58 0.17
18 20 0.78 0.23
18 21 0.66 0.15
18 22 0.65 0.18
18 23 0.55 0.22
18 24 0.62 0.24
18 25 0.16 0.12
18 26 0.54 0.21
18 27 0.68 0.23
18 28 0.46 0.15
18 29 0.48 0.12
18 30 0.52 0.25
18 31 0.31 0.16
18 32 0.48 0.2
18 33 0.45 0.18
18 34 0.42 0.24
18 35 0.6 0.04
18 36 0.55 0.14
18 37 0.53 0.04
18 38 0.44 0.14
18 39 0.61 0.26
18 40 0.42 0.2
18 41 0.5 0.26
18 42 0.56 0.27
18 43 0.42 0.2
18 44 0.56 0.22
18 45 0.5 0.25
18 46 0.38 0.26
18 47 0.76 0.17
18 48 0.61 0.16
18 49 0.54 0.21
19 20 0.58 0.19
19 21 0.42 0.12
19 22 0.52 0.17
19 23 0.48 0.22
19 24 0.57 0.16
19 25 0.74 0.23
19 26 0.46 0.16
19 27 0.72 0.12
19 28 0.74 0.13
19 29 0.86 0.22
19 30 0.74 0.24
19 31 0.6 0.14
19 32 0.5 0.2
19 33 0.38 0.12
19 34 0.54 0.18
19 35 0.58 0.13
19 36 0.67 0.18
19 37 0.66 0.21
19 38 0.31 0.09
19 39 0.49 0.3
19 40 0.3 0.14
19 41 0.42 0.2
19 42 0.46 0.27
19 43 0.65 0.16
19 44 0.56 0.23
19 45 0.49 0.23
19 46 0.66 0.26
19 47 0.76 0.18
19 48 0.66 0.24
19 49 0.62 0.21
20 21 0.52 0.22
20 22 0.32 0.17
20 23 0.64 0.24
20 24 0.57 0.31
20 25 0.64 0.11
20 26 0.62 0.22
20 27 0.69 0.23
20 28 0.64 0.16
20 29 0.48 0.16
20 30 0.5 0.24
20 31 0.51 0.09
20 32 0.68 0.23
20 33 0.36 0.07
20 34 0.56 0.29
20 35 0.42 0.22
20 36 0.65 0.13
20 37 0.65 0.25
20 38 0.64 0.12
20 39 0.58 0.27
20 40 0.8 0.14
20 41 0.78 0.08
20 42 0.22 0.08
20 43 0.47 0.11
20 44 0.58 0.16
20 45 0.78 0.25
20 46 0.54 0.21
20 47 0.78 0.13
20 48 0.37 0.19
20 49 0.79 0.18
21 22 0.77 0.25
21 23 0.58 0.23
21 24 0.64 0.18
21 25 0.5 0.27
21 26 0.64 0.28
21 27 0.72 0.15
21 28 0.7 0.21
21 29 0.58 0.1
21 30 0.49 0.12
21 31 0.84 0.13
21 32 0.44 0.13
21 33 0.52 0.15
21 34 0.32 0.09
21 35 0.66 0.18
21 36 0.74 0.09
21 37 0.72 0.19
21 38 0.64 0.21
21 39 0.78 0.24
21 40 0.56 0.19
21 41 0.63 0.25
21 42 0.66 0.3
21 43 0.82 0.19
21 44 0.26 0.22
21 45 0.62 0.11
21 46 0.42 0.14
21 47 0.46 0.21
21 48 0.44 0.15
21 49 0.68 0.22
22 23 0.71 0.21
22 24 0.63 0.29
22 25 0.49 0.06
22 26 0.46 0.2
22 27 0.37 0.24
22 28 0.52 0.04
22 29 0.56 0.29
22 30 0.44 0.2
22 31 0.4 0.18
22 32 0.6 0.12
22 33 0.59 0.2
22 34 0.61 0.29
22 35 0.7 0.18
22 36 0.76 0.22
22 37 0.43 0.14
22 38 0.44 0.08
22 39 0.64 0.26
22 40 0.54 0.27
22 41 0.66 0.25
22 42 0.54 0.14
22 43 0.42 0.22
22 44 0.56 0.15
22 45 0.78 0.27
22 46 0.78 0.32
22 47 0.64 0.22
22 48 0.42 0.18
22 49 0.56 0.13
23 24 0.54 0.17
23 25 0.71 0.27
23 26 0.59 0.28
23 27 0.82 0.25
23 28 0.73 0.17
23 29 0.61 0.28
23 30 0.64 0.19
23 31 0.6 0.23
23 32 0.31 0.24
23 33 0.44 0.21
23 34 0.58 0.26
23 35 0.65 0.18
23 36 0.52 0.27
23 37 0.47 0.24
23 38 0.49 0.13
23 39 0.44 0.22
23 40 0.65 0.15
23 41 0.55 0.19
23 42 0.59 0.27
23 43 0.64 0.23
23 44 0.32 0.15
23 45 0.7 0.24
23 46 0.79 0.31
23 47 0.88 0.2
23 48 0.66 0.3
23 49 0.48 0.13
24 25 0.46 0.33
24 26 0.74 0.32
24 27 0.74 0.15
24 28 0.6 0.29
24 29 0.67 0.18
24 30 0.44 0.29
24 31 0.78 0.26
24 32 0.46 0.31
24 33 0.4 0.24
24 34 0.66 0.09
24 35 0.5 0.28
24 36 0.64 0.27
24 37 0.72 0.2
24 38 0.56 0.25
24 39 0.62 0.3
24 40 0.42 0.2
24 41 0.54 0.26
24 42 0.67 0.3
24 43 0.64 0.28
24 44 0.54 0.25
24 45 0.76 0.25
24 46 0.39 0.22
24 47 0.48 0.18
24 48 0.64 0.31
24 49 0.62 0.23
25 26 0.43 0.26
25 27 0.62 0.3
25 28 0.3 0.1
25 29 0.58 0.24
25 30 0.56 0.26
25 31 0.47 0.14
25 32 0.52 0.18
25 33 0.52 0.16
25 34 0.26 0.24
25 35 0.76 0.16
25 36 0.71 0.18
25 37 0.53 0.16
25 38 0.58 0.14
25 39 0.52 0.32
25 40 0.5 0.24
25 41 0.47 0.19
25 42 0.6 0.19
25 43 0.49 0.2
25 44 0.4 0.21
25 45 0.44 0.3
25 46 0.54 0.32
25 47 0.6 0.22
25 48 0.69 0.24
25 49 0.5 0.19
26 27 0.6 0.28
26 28 0.63 0.16
26 29 0.5 0.33
26 30 0.38 0.32
26 31 0.62 0.21
26 32 0.74 0.24
26 33 0.51 0.19
26 34 0.32 0.24
26 35 0.7 0.17
26 36 0.72 0.25
26 37 0.54 0.25
26 38 0.64 0.2
26 39 0.58 0.34
26 40 0.56 0.22
26 41 0.68 0.16
26 42 0.66 0.3
26 43 0.42 0.23
26 44 0.49 0.23
26 45 0.43 0.34
26 46 0.62 0.29
26 47 0.56 0.19
26 48 0.53 0.31
26 49 0.64 0.21
27 28 0.4 0.22
27 29 0.68 0.22
27 30 0.72 0.15
27 31 0.63 0.26
27 32 0.7 0.26
27 33 0.62 0.24
27 34 0.52 0.06
27 35 0.73 0.19
27 36 0.76 0.24
27 37 0.62 0.27
27 38 0.46 0.21
27 39 0.38 0.26
27 40 0.44 0.26
27 41 0.56 0.31
27 42 0.58 0.3
27 43 0.57 0.28
27 44 0.66 0.24
27 45 0.7 0.26
27 46 0.72 0.29
27 47 0.53 0.22
27 48 0.79 0.3
27 49 0.61 0.22
28 29 0.28 0.25
28 30 0.4 0.16
28 31 0.48 0.2
28 32 0.5 0.08
28 33 0.58 0.19
28 34 0.56 0.25
28 35 0.49 0.14
28 36 0.59 0.24
28 37 0.52 0.11
28 38 0.72 0.04
28 39 0.7 0.22
28 40 0.44 0.23
28 41 0.56 0.24
28 42 0.71 0.18
28 43 0.3 0.18
28 44 0.51 0.11
28 45 0.3 0.23
28 46 0.32 0.28
28 47 0.58 0.19
28 48 0.68 0.22
28 49 0.58 0.09
29 30 0.5 0.22
29 31 0.76 0.2
29 32 0.44 0.17
29 33 0.8 0.22
29 34 0.65 0.19
29 35 0.58 0.16
29 36 0.62 0.16
29 37 0.8 0.16
29 38 0.67 0.26
29 39 0.54 0.14
29 40 0.56 0.22
29 41 0.44 0.24
29 42 0.7 0.24
29 43 0.58 0.18
29 44 0.48 0.25
29 45 0.58 0.21
29 46 0.28 0.14
29 47 0.3 0.16
29 48 0.49 0.13
29 49 0.61 0.26
30 31 0.48 0.24
30 32 0.62 0.15
30 33 0.62 0.22
30 34 0.7 0.21
30 35 0.52 0.23
30 36 0.52 0.21
30 37 0.4 0.21
30 38 0.44 0.16
30 39 0.67 0.25
30 40 0.72 0.2
30 41 0.6 0.24
30 42 0.64 0.3
30 43 0.44 0.18
30 44 0.32 0.14
30 45 0.62 0.23
30 46 0.42 0.14
30 47 0.66 0.18
30 48 0.34 0.22
30 49 0.48 0.16
31 32 0.48 0.18
31 33 0.38 0.02
31 34 0.52 0.22
31 35 0.38 0.2
31 36 0.56 0.04
31 37 0.46 0.16
31 38 0.52 0.2
31 39 0.38 0.31
31 40 0.44 0.1
31 41 0.32 0.16
31 42 0.73 0.17
31 43 0.73 0.06
31 44 0.62 0.2
31 45 0.48 0.16
31 46 0.56 0.19
31 47 0.82 0.08
31 48 0.54 0.1
31 49 0.46 0.18
32 33 0.46 0.16
32 34 0.64 0.22
32 35 0.74 0.22
32 36 0.61 0.22
32 37 0.56 0.19
32 38 0.73 0.12
32 39 0.57 0.3
32 40 0.64 0.28
32 41 0.52 0.31
32 42 0.49 0.26
32 43 0.8 0.2
32 44 0.51 0.19
32 45 0.64 0.24
32 46 0.72 0.27
32 47 0.64 0.16
32 48 0.78 0.28
32 49 0.51 0.17
33 34 0.66 0.24
33 35 0.53 0.19
33 36 0.5 0.06
33 37 0.53 0.18
33 38 0.69 0.19
33 39 0.56 0.29
33 40 0.56 0.12
33 41 0.44 0.15
33 42 0.58 0.15
33 43 0.74 0.04
33 44 0.76 0.18
33 45 0.69 0.18
33 46 0.62 0.17
33 47 0.6 0.06
33 48 0.63 0.12
33 49 0.64 0.16
34 35 0.51 0.25
34 36 0.72 0.18
34 37 0.6 0.28
34 38 0.32 0.27
34 39 0.46 0.29
34 40 0.24 0.2
34 41 0.36 0.26
34 42 0.34 0.24
34 43 0.74 0.28
34 44 0.46 0.18
34 45 0.7 0.2
34 46 0.47 0.23
34 47 0.5 0.19
34 48 0.43 0.24
34 49 0.59 0.16
35 36 0.32 0.18
35 37 0.65 0.08
35 38 0.68 0.1
35 39 0.76 0.28
35 40 0.66 0.18
35 41 0.7 0.23
35 42 0.58 0.25
35 43 0.68 0.23
35 44 0.4 0.18
35 45 0.61 0.21
35 46 0.81 0.24
35 47 0.83 0.13
35 48 0.62 0.2
35 49 0.6 0.17
36 37 0.67 0.18
36 38 0.61 0.24
36 39 0.56 0.3
36 40 0.72 0.14
36 41 0.6 0.2
36 42 0.79 0.21
36 43 0.78 0.1
36 44 0.59 0.21
36 45 0.29 0.12
36 46 0.58 0.23
36 47 0.83 0.12
36 48 0.48 0.06
36 49 0.64 0.22
37 38 0.56 0.15
37 39 0.72 0.3
37 40 0.36 0.24
37 41 0.48 0.3
37 42 0.58 0.23
37 43 0.73 0.22
37 44 0.5 0.22
37 45 0.54 0.29
37 46 0.67 0.3
37 47 0.71 0.21
37 48 0.66 0.12
37 49 0.49 0.2
38 39 0.78 0.25
38 40 0.56 0.23
38 41 0.61 0.2
38 42 0.66 0.2
38 43 0.78 0.22
38 44 0.54 0.14
38 45 0.48 0.27
38 46 0.6 0.3
38 47 0.69 0.22
38 48 0.68 0.25
38 49 0.68 0.12
39 40 0.36 0.27
39 41 0.48 0.29
39 42 0.4 0.2
39 43 0.56 0.3
39 44 0.58 0.11
39 45 0.4 0.28
39 46 0.69 0.16
39 47 0.8 0.23
39 48 0.71 0.27
39 49 0.81 0.13
40 41 0.12 0.06
40 42 0.58 0.22
40 43 0.52 0.16
40 44 0.7 0.16
40 45 0.55 0.25
40 46 0.36 0.19
40 47 0.54 0.18
40 48 0.67 0.16
40 49 0.7 0.14
41 42 0.56 0.16
41 43 0.58 0.19
41 44 0.72 0.2
41 45 0.56 0.24
41 46 0.24 0.13
41 47 0.52 0.21
41 48 0.64 0.22
41 49 0.58 0.18
42 43 0.41 0.19
42 44 0.59 0.24
42 45 0.75 0.33
42 46 0.43 0.22
42 47 0.73 0.12
42 48 0.52 0.27
42 49 0.81 0.22
43 44 0.76 0.22
43 45 0.6 0.22
43 46 0.58 0.21
43 47 0.54 0.1
43 48 0.65 0.16
43 49 0.6 0.2
44 45 0.54 0.25
44 46 0.48 0.23
44 47 0.6 0.12
44 48 0.56 0.27
44 49 0.48 0.02
45 46 0.4 0.25
45 47 0.6 0.24
45 48 0.48 0.18
45 49 0.51 0.23
46 47 0.4 0.11
46 48 0.72 0.27
46 49 0.64 0.21
47 48 0.62 0.18
47 49 0.48 0.1
48 49 0.66 0.28
